(set-logic ALL)
(declare-fun seed0_T_1 () Bool)
(declare-fun seed0_var_0xINPUT_112084 () String)
(assert (and (or (= seed0_T_1 (= seed0_var_0xINPUT_112084 "JE2aUEKBUQ")) (xor (str.contains (str.++ seed0_var_0xINPUT_112084 "2Sk0ncuyiMgA") (str.++ seed0_var_0xINPUT_112084 "C1EZY")) (str.suffixof (str.++ seed0_var_0xINPUT_112084 "JfUuskG4ZvAX3L9boq6") (str.++ seed0_var_0xINPUT_112084 "prU")))) (or seed0_T_1 (or (str.contains (str.++ seed0_var_0xINPUT_112084 "pXn25") (str.++ seed0_var_0xINPUT_112084 "")) (str.contains (str.++ seed0_var_0xINPUT_112084 "7BcQlPjtdOI") (str.++ seed0_var_0xINPUT_112084 "8"))))))
(check-sat)
(exit)